
Log started (V12.5.1.0) Tue Oct  2 18:27:08 2018

Warning, line 3: Objective ended unexpectedly.

Problem 'exo3tp2.lp' read.
Read time = 0.01 sec. (0.00 ticks)
Tried aggregator 1 time.
LP Presolve eliminated 5 rows and 4 columns.
All rows and columns eliminated.
Presolve time = 0.00 sec. (0.00 ticks)

Dual simplex - Optimal:  Objective =  1.0800000000e+04
Solution time =    0.00 sec.  Iterations = 0 (0)
Deterministic time = 0.01 ticks  (1.77 ticks/sec)


Variable Name           Solution Value
y1                          400.000000
All other variables in the range 1-4 are 0.
Dual simplex - Optimal:  Objective =  1.0800000000e+04
Warning, line 3: Objective ended unexpectedly.

Problem 'exo3tp2.lp' read.
Read time = 0.00 sec. (0.00 ticks)
Tried aggregator 1 time.
LP Presolve eliminated 5 rows and 4 columns.
All rows and columns eliminated.
Presolve time = 0.00 sec. (0.00 ticks)

Dual simplex - Optimal:  Objective =  1.0800000000e+04
Solution time =    0.00 sec.  Iterations = 0 (0)
Deterministic time = 0.01 ticks  (5.51 ticks/sec)


Variable Name           Solution Value
y1                          400.000000
All other variables in the range 1-4 are 0.
Warning, line 3: Objective ended unexpectedly.

Problem 'exo3tp2.lp' read.
Read time = 0.00 sec. (0.00 ticks)
Tried aggregator 1 time.
LP Presolve eliminated 5 rows and 4 columns.
All rows and columns eliminated.
Presolve time = 0.00 sec. (0.00 ticks)

Dual simplex - Optimal:  Objective =  1.0800000000e+04
Solution time =    0.00 sec.  Iterations = 0 (0)
Deterministic time = 0.01 ticks  (5.51 ticks/sec)


Variable Name           Solution Value
y1                          400.000000
All other variables in the range 1-4 are 0.
Warning, line 3: Objective ended unexpectedly.

Problem 'exo3tp2.lp' read.
Read time = 0.00 sec. (0.00 ticks)
Tried aggregator 1 time.
LP Presolve eliminated 1 rows and 0 columns.
Aggregator did 1 substitutions.
Reduced LP has 3 rows, 3 columns, and 7 nonzeros.
Presolve time = 0.00 sec. (0.00 ticks)

Iteration log . . .
Iteration:     1   Scaled dual infeas =             0.000000
Iteration:     2   Dual objective     =         39300.000000

Dual simplex - Optimal:  Objective =  2.4000000000e+04
Solution time =    0.00 sec.  Iterations = 3 (1)
Deterministic time = 0.01 ticks  (10.21 ticks/sec)


Variable Name           Solution Value
x2                          160.000000
y1                          400.000000
y2                          400.000000
All other variables in the range 1-4 are 0.
Dual simplex - Optimal:  Objective =  2.4000000000e+04

Problem 'exo3tp2.lp' read.
Read time = 0.00 sec. (0.00 ticks)
Tried aggregator 1 time.
LP Presolve eliminated 1 rows and 0 columns.
Aggregator did 1 substitutions.
Reduced LP has 3 rows, 3 columns, and 7 nonzeros.
Presolve time = 0.00 sec. (0.00 ticks)

Iteration log . . .
Iteration:     1   Scaled dual infeas =             0.000000
Iteration:     2   Dual objective     =         29300.000000

Dual simplex - Optimal:  Objective =  2.4000000000e+04
Solution time =    0.00 sec.  Iterations = 3 (1)
Deterministic time = 0.01 ticks  (10.21 ticks/sec)

